# Objective value 1146.5665024630541
x(I,A1,B1)    0
x(I,A1,B2)    858.6206896551721
x(I,A1,B3)    341.3793103448279
x(I,A2,B1)    0
x(I,A2,B2)    0
x(I,A2,B3)    230.04926108374354
x(II,A1,B1)   0
x(II,A2,B1)   500
x(III,A2,B2)  324.1379310344829
y(A1)         1
y(A2)         1
y(B1)         1
y(B2)         1
y(B3)         1
